50 500
36   27   99   71   5   85   86   58   43   31   21   72   89   14   70   77   23   44   67   19   2   41   90   79   91   78   92   51   59   26   96   42   46   49   62   22   8   69   54   18   97   84   82   30   93   34   65   10   13   61
75   43   83   93   97   17   65   39   48   25   35   13   56   6   89   72   92   99   12   68   88   62   57   52   18   24   37   81   33   76   61   26   94   11   67   27   87   23   15   98   7   90   29   74   36   80   28   50   46   4